NAME : tsp_77_sol.txt
COMMENT : OR-Tools Guided Local Search
TYPE : TOUR
DIMENSION : 50
COST : 6321
STATUS : ROUTING_SUCCESS
GAP : 0.00% (Reference Solution)
TOUR_SECTION
1
16
3
48
13
20
26
19
21
37
35
41
46
8
10
31
44
6
49
7
40
36
47
24
14
43
27
45
28
9
34
12
18
23
25
22
42
29
50
39
38
11
15
2
30
32
4
5
17
33
-1
